data/CAV19/chc/CAV/64bits_unsigned/32bits_unsignedcegis_danger_benchmark_svcomp_simple_true-unreach-call3.sl_32bits_unsigned.sl_64bits_unsigned.smt2
(set-logic HORN)
(declare-fun inv ((_ BitVec 64) (_ BitVec 64) ) Bool)
(assert (forall ((x (_ BitVec 64)) (N (_ BitVec 64))) 
       (=> ( and ( = x #x00000000 ) ( = N ( bvurem N #x0000ffff ) ) ) (inv x N))))
(assert (forall ((x (_ BitVec 64)) (N (_ BitVec 64)) (x! (_ BitVec 64)) (N! (_ BitVec 64))) 
       (=> (and (inv x N) ( and ( bvult x N ) ( = x! ( bvadd x #x00000002 ) ) ( = N! N ) )) (inv x! N!))))
(assert (forall ((x (_ BitVec 64)) (N (_ BitVec 64))) 
       (=> (inv x N) ( or ( = #x00000000 ( bvurem x #x00000002 ) ) ( bvult x N ) ))))
(check-sat)
